0 2938
1 2834
2 2707
3 2640
4 2570
5 2540
6 2427
7 2357
8 2341
9 2139
10 2107
11 2083
12 1981
13 1981
14 1893
15 1831
16 1831
17 1831
18 1762
19 1711
20 1711
21 1638
22 1638
23 1638
24 1638
25 1597
26 1597
27 1580
28 1575
29 1552
30 1552
31 1552
32 1552
33 1540
34 1540
35 1540
36 1492
37 1492
38 1492
39 1492
40 1492
41 1492
42 1491
43 1491
44 1468
45 1468
46 1468
47 1468
48 1468
49 1418
50 1418
51 1418
52 1418
53 1418
54 1390
55 1390
56 1390
57 1390
58 1390
59 1390
60 1390
61 1390
62 1390
63 1390
64 1370
65 1370
66 1370
67 1370
68 1353
69 1353
70 1353
71 1353
72 1353
73 1353
74 1353
75 1353
76 1353
77 1353
78 1353
79 1340
80 1340
81 1290
82 1290
83 1290
84 1290
85 1290
86 1290
87 1290
88 1290
89 1290
90 1290
91 1290
92 1290
93 1290
94 1290
95 1253
96 1253
97 1253
98 1253
99 1253
100 1253
101 1253
102 1253
103 1253
104 1253
105 1253
106 1253
107 1253
108 1253
109 1253
110 1207
111 1207
112 1207
113 1207
114 1207
115 1207
116 1207
117 1204
118 1204
119 1204
120 1204
121 1204
122 1204
123 1204
124 1204
125 1204
126 1197
127 1197
128 1197
129 1197
130 1192
131 1190
132 1186
133 1181
134 1181
135 1181
136 1181
137 1181
138 1181
139 1145
140 1145
141 1145
142 1145
143 1145
144 1145
145 1145
146 1145
147 1145
148 1145
149 1145
150 1145
151 1145
152 1145
153 1145
154 1145
155 1145
156 1145
157 1145
158 1145
159 1145
160 1145
161 1145
162 1145
163 1145
164 1145
165 1145
166 1145
167 1145
168 1145
169 1145
170 1145
171 1145
172 1145
173 1145
174 1145
175 1145
176 1145
177 1145
178 1145
179 1145
180 1145
181 1145
182 1145
183 1145
184 1145
185 1140
186 1140
187 1140
188 1140
189 1140
190 1124
191 1124
192 1124
193 1124
194 1124
195 1124
196 1124
197 1124
198 1124
199 1114
200 1114
201 1114
202 1114
203 1114
204 1114
205 1114
206 1114
207 1114
208 1114
209 1114
210 1114
211 1114
212 1114
213 1114
214 1114
215 1114
216 1114
217 1114
218 1114
219 1114
220 1114
221 1114
222 1114
223 1114
224 1114
225 1114
226 1114
227 1114
228 1114
229 1114
230 1114
231 1114
232 1114
233 1114
234 1113
235 1113
236 1113
237 1113
238 1113
239 1112
240 1112
241 1112
242 1112
243 1112
244 1112
245 1101
246 1101
247 1101
248 1101
249 1101
250 1101
251 1101
252 1101
253 1101
254 1101
255 1101
256 1101
257 1101
258 1101
259 1101
260 1101
261 1101
262 1101
263 1101
264 1096
265 1096
266 1096
267 1096
268 1096
269 1096
270 1096
271 1096
272 1079
273 1079
274 1079
275 1079
276 1079
277 1079
278 1079
279 1079
280 1079
281 1079
282 1079
283 1079
284 1079
285 1079
286 1079
287 1079
288 1079
289 1079
290 1079
291 1079
292 1079
293 1079
294 1079
295 1079
296 1079
297 1079
298 1079
299 1079
300 1079
301 1079
302 1079
303 1079
304 1079
305 1079
306 1074
307 1074
308 1074
309 1074
310 1074
311 1074
312 1074
313 1074
314 1074
315 1074
316 1074
317 1074
318 1074
319 1074
320 1074
321 1074
322 1074
323 1074
324 1074
325 1074
326 1074
327 1074
328 1074
329 1074
330 1074
331 1074
332 1074
333 1069
334 1069
335 1069
336 1069
337 1069
338 1069
339 1069
340 1069
341 1069
342 1069
343 1069
344 1067
345 1067
346 1066
347 1066
348 1065
349 1065
350 1065
351 1065
352 1065
353 1061
354 1059
355 1059
356 1059
357 1059
358 1059
359 1059
360 1059
361 1059
362 1059
363 1059
364 1059
365 1042
366 1042
367 1042
368 1042
369 1042
370 1042
371 1042
372 1042
373 1042
374 1042
375 1042
376 1042
377 1042
378 1042
379 1042
380 1042
381 1042
382 1042
383 1042
384 1041
385 1041
386 1041
387 1041
388 1041
389 1041
390 1041
391 1040
392 1040
393 1040
394 1040
395 1040
396 1040
397 1040
398 1040
399 1040
400 1040
401 1040
402 1040
403 1040
404 1040
405 1040
406 1040
407 1040
408 1040
409 1040
410 1038
411 1038
412 1038
413 1038
414 1038
415 1038
416 1038
417 1038
418 1038
419 1038
420 1038
421 1038
422 1038
423 1037
424 1037
425 1037
426 1037
427 1037
428 1037
429 1037
430 1037
431 1037
432 1037
433 1037
434 1037
435 1037
436 1037
437 1037
438 1036
439 1036
440 1030
441 1030
442 1030
443 1030
444 1030
445 1029
446 1029
447 1029
448 1029
449 1029
450 1029
451 1029
452 1029
453 1029
454 1029
455 1029
456 1029
457 1029
458 1029
459 1029
460 1029
461 1029
462 1029
463 1029
464 1029
465 1029
466 1028
467 1025
468 1025
469 1025
470 1025
471 1025
472 1025
473 1025
474 1025
475 1025
476 1025
477 1025
478 1025
479 1025
480 1025
481 1025
482 1025
483 1025
484 1025
485 1025
486 1025
487 1025
488 1025
489 1025
490 1025
491 1025
492 1025
493 1025
494 1025
495 1025
496 1025
497 1025
498 1025
499 1025
500 1025
501 1025
502 1025
503 1025
504 1025
505 1025
506 1025
507 1025
508 1025
509 1025
510 1025
511 1025
512 1025
513 1025
514 1025
515 1025
516 1025
517 1025
518 1025
519 1025
520 1025
521 1025
522 1025
523 1025
524 1025
525 1025
526 1025
527 1025
528 1025
529 1025
530 1025
531 1025
532 1025
533 1025
534 1025
535 1025
536 1025
537 1025
538 1025
539 1025
540 1025
541 1025
542 1025
543 1025
544 1025
545 1025
546 1025
547 1025
548 1025
549 1025
550 1025
551 1025
552 1025
553 1025
554 1025
555 1025
556 1025
557 1025
558 1025
559 1025
560 1025
561 1025
562 1025
563 1025
564 1025
565 1025
566 1025
567 1025
568 1025
569 1025
570 1025
571 1025
572 1025
573 1025
574 1025
575 1025
576 1025
577 1025
578 1025
579 1025
580 1025
581 1025
582 1025
583 1025
584 1025
585 1025
586 1025
587 1025
588 1025
589 1025
590 1025
591 1025
592 1025
593 1025
594 1025
595 1025
596 1025
597 1025
598 1025
599 1025
600 1025
601 1025
602 1025
603 1025
604 1025
605 1025
606 1025
607 1025
608 1025
609 1025
610 1025
611 1025
612 1025
613 1025
614 1025
615 1025
616 1025
617 1025
618 1025
619 1025
620 1025
621 1025
622 1025
623 1025
624 1025
625 1025
626 1025
627 1025
628 1025
629 1025
630 1025
631 1025
632 1025
633 1025
634 1025
635 1025
636 1025
637 1025
638 1025
639 1025
640 1025
641 1025
642 1025
643 1025
644 1025
645 1025
646 1025
647 1025
648 1025
649 1025
650 1025
651 1025
652 1025
653 1025
654 1025
655 1025
656 1025
657 1025
658 1025
659 1025
660 1025
661 1025
662 1025
663 1025
664 1025
665 1025
666 1025
667 1025
668 1025
669 1025
670 1025
671 1025
672 1025
673 1025
674 1025
675 1025
676 1025
677 1025
678 1025
679 1025
680 1025
681 1025
682 1025
683 1025
684 1025
685 1025
686 1025
687 1025
688 1025
689 1025
690 1025
691 1025
692 1025
693 1025
694 1025
695 1025
696 1025
697 1025
698 1025
699 1025
700 1025
701 1025
702 1025
703 1025
704 1025
705 1025
706 1025
707 1025
708 1025
709 1025
710 1025
711 1025
712 1025
713 1025
714 1025
715 1025
716 1025
717 1025
718 1025
719 1025
720 1025
721 1025
722 1025
723 1025
724 1025
725 1025
726 1025
727 1025
728 1025
729 1025
730 1025
731 1025
732 1025
733 1025
734 1025
735 1025
736 1025
737 1025
738 1025
739 1025
740 1025
741 1025
742 1025
743 1025
744 1025
745 1025
746 1025
747 1025
748 1025
749 1025
750 1025
751 1025
752 1025
753 1025
754 1025
755 1025
756 1025
757 1025
758 1025
759 1025
760 1025
761 1025
762 1025
763 1025
764 1025
765 1025
766 1025
767 1025
768 1025
769 1025
770 1025
771 1025
772 1025
773 1025
774 1025
775 1025
776 1025
777 1025
778 1025
779 1025
780 1025
781 1025
782 1025
783 1025
784 1025
785 1025
786 1025
787 1025
788 1025
789 1025
790 1025
791 1025
792 1025
793 1025
794 1025
795 1025
796 1025
797 1025
798 1025
799 1025
800 1025
801 1025
802 1025
803 1025
804 1025
805 1025
806 1025
807 1025
808 1025
809 1025
810 1025
811 1025
812 1025
813 1025
814 1025
815 1025
816 1025
817 1025
818 1025
819 1025
820 1025
821 1025
822 1025
823 1025
824 1025
825 1025
826 1025
827 1025
828 1025
829 1025
830 1025
831 1025
832 1025
833 1025
834 1025
835 1025
836 1025
837 1025
838 1025
839 1025
840 1025
841 1025
842 1025
843 1025
844 1025
845 1025
846 1025
847 1025
848 1025
849 1025
850 1025
851 1025
852 1025
853 1025
854 1025
855 1025
856 1025
857 1025
858 1025
859 1025
860 1025
861 1025
862 1025
863 1025
864 1025
865 1025
866 1025
867 1025
868 1025
869 1025
870 1025
871 1025
872 1025
873 1025
874 1025
875 1025
876 1025
877 1025
878 1025
879 1025
880 1025
881 1025
882 1025
883 1025
884 1025
885 1025
886 1025
887 1025
888 1025
889 1025
890 1025
891 1025
892 1025
893 1025
894 1025
895 1025
896 1025
897 1025
898 1025
899 1025
900 1025
901 1025
902 1025
903 1025
904 1025
905 1025
906 1025
907 1025
908 1025
909 1025
910 1025
911 1025
912 1025
913 1025
914 1025
915 1025
916 1025
917 1025
918 1025
919 1025
920 1025
921 1025
922 1025
923 1025
924 1025
925 1025
926 1025
927 1025
928 1025
929 1025
930 1025
931 1025
932 1025
933 1025
934 1025
935 1025
936 1025
937 1025
938 1025
939 1025
940 1025
941 1025
942 1025
943 1025
944 1025
945 1025
946 1025
947 1025
948 1025
949 1025
950 1025
951 1025
952 1025
953 1025
954 1025
955 1025
956 1025
957 1025
958 1025
959 1025
960 1025
961 1025
962 1025
963 1025
964 1025
965 1025
966 1025
967 1025
968 1025
969 1025
970 1025
971 1025
972 1025
973 1025
974 1025
975 1025
976 1025
977 1025
978 1025
979 1025
980 1025
981 1025
982 1025
983 1025
984 1025
985 1025
986 1025
987 1025
988 1025
989 1025
990 1025
991 1025
992 1025
993 1025
994 1025
995 1025
996 1025
997 1025
998 1025
999 1025
Best: [[25,17,8,18,35],
       [30,37,9,6,4,21],
       [2,34,3,29,24,23,13,12,14],
       [28,33,36,26],
       [16,31,11,27,5,19],
       [15,32,20,22,10,7]], fitness: 1025
